p cnf 69 163
1 0
8 9 0
-8 -9 0
10 11 0
-10 -11 0
-7 8 0
-7 10 0
7 -8 -10 0
13 -9 0
-13 9 0
14 11 0
-14 -11 0
-12 13 0
-12 14 0
12 -13 -14 0
6 -7 0
6 -12 0
-6 7 12 0
17 18 0
-17 -18 0
19 20 0
-19 -20 0
-16 17 0
-16 19 0
16 -17 -19 0
22 -18 0
-22 18 0
23 20 0
-23 -20 0
-21 22 0
-21 23 0
21 -22 -23 0
15 -16 0
15 -21 0
-15 16 21 0
-5 6 0
-5 15 0
5 -6 -15 0
-24 5 0
24 -5 0
4 -5 0
4 -24 0
-4 5 24 0
-28 21 0
28 -21 0
-29 12 0
29 -12 0
-27 28 0
-27 29 0
27 -28 -29 0
32 18 0
-32 -18 0
33 -20 0
-33 20 0
-31 32 0
-31 33 0
31 -32 -33 0
-34 12 0
34 -12 0
-30 31 0
-30 34 0
30 -31 -34 0
26 -27 0
26 -30 0
-26 27 30 0
-36 16 0
36 -16 0
38 9 0
-38 -9 0
39 -11 0
-39 11 0
-37 38 0
-37 39 0
37 -38 -39 0
-35 36 0
-35 37 0
35 -36 -37 0
25 -26 0
25 -35 0
-25 26 35 0
-3 4 0
-3 25 0
3 -4 -25 0
-42 5 0
42 -5 0
-43 15 0
43 -15 0
41 -42 0
41 -43 0
-41 42 43 0
-47 21 0
47 -21 0
-48 21 0
48 -21 0
-46 47 0
-46 48 0
46 -47 -48 0
-50 31 0
50 -31 0
-51 21 0
51 -21 0
-49 50 0
-49 51 0
49 -50 -51 0
45 -46 0
45 -49 0
-45 46 49 0
-53 16 0
53 -16 0
-54 31 0
54 -31 0
-52 53 0
-52 54 0
52 -53 -54 0
44 -45 0
44 -52 0
-44 45 52 0
-40 41 0
-40 44 0
40 -41 -44 0
2 -3 0
2 -40 0
-2 3 40 0
-59 12 0
59 -12 0
-60 21 0
60 -21 0
-58 59 0
-58 60 0
58 -59 -60 0
-62 37 0
62 -37 0
-63 21 0
63 -21 0
-61 62 0
-61 63 0
61 -62 -63 0
57 -58 0
57 -61 0
-57 58 61 0
-65 7 0
65 -7 0
-66 31 0
66 -31 0
-64 65 0
-64 66 0
64 -65 -66 0
56 -57 0
56 -64 0
-56 57 64 0
-68 7 0
68 -7 0
-69 7 0
69 -7 0
67 -68 0
67 -69 0
-67 68 69 0
-55 56 0
-55 67 0
55 -56 -67 0
-1 2 0
-1 55 0
1 -2 -55 0
